p td 22 105
3 1
4 1
4 3
5 4
5 3
5 1
5 2
7 5
8 3
8 4
8 6
9 1
9 3
9 4
9 7
9 8
9 6
10 7
10 1
10 4
10 5
10 2
11 5
11 2
11 1
11 4
12 2
12 6
12 3
12 9
12 5
12 11
12 8
13 3
13 11
13 10
13 4
13 12
13 1
13 2
14 5
14 10
14 6
14 7
14 4
14 13
14 1
15 12
15 4
15 10
15 13
16 1
16 14
16 2
16 15
16 4
16 7
17 8
17 3
17 16
17 9
17 11
17 5
18 7
18 16
18 11
18 1
18 17
18 13
19 11
19 1
19 7
19 10
19 3
19 15
19 9
19 8
20 10
20 19
20 6
20 3
20 16
20 13
20 7
20 1
20 9
20 4
21 11
21 13
21 9
21 1
21 14
21 6
21 19
21 3
21 15
22 10
22 8
22 11
22 16
22 6
22 7
22 20
22 14
22 1
